50 3
25 200
20
30
10
40
20
20
20
10
20
30
40
20
10
10
20
20
20
20
40
10
10
40
30
10
20
30
20
10
10
10
20
10
10
30
20
40
10
30
10
30
20
10
20
10
10
10
10
10
10
30
40 50 0 240 0 0
25 85 0 191 10 1
22 75 0 199 10 3
22 85 0 190 10 3
20 80 141 171 10 3
20 85 0 189 10 2
18 75 0 196 10 3
15 75 0 194 10 1
15 80 91 121 10 1
10 35 91 121 10 1
10 40 0 198 10 1
8 40 59 89 10 3
8 45 0 197 10 3
5 35 142 172 10 1
5 45 0 194 10 1
2 40 58 88 10 2
0 40 0 188 10 1
0 45 0 189 10 1
44 5 0 184 10 2
42 10 0 189 10 3
42 15 0 194 10 3
40 5 0 185 10 2
40 15 0 195 10 1
38 5 65 95 10 2
38 15 0 194 10 1
35 5 154 184 10 3
95 30 0 171 10 1
95 35 0 172 10 2
92 30 0 174 10 1
90 35 0 177 10 2
88 30 0 178 10 2
88 35 0 179 10 2
87 30 0 178 10 1
85 25 0 178 10 2
85 35 0 182 10 3
67 85 0 185 10 3
65 85 0 186 10 3
65 82 0 189 10 1
62 80 75 105 10 2
60 80 0 193 10 1
60 85 0 189 10 3
58 75 0 199 10 2
55 80 0 196 10 3
55 85 0 191 10 1
55 82 64 94 10 2
20 82 0 192 10 1
18 80 0 192 10 2
2 45 0 191 10 3
42 5 0 184 10 1
42 12 0 191 10 3
72 35 0 194 10 1
50 55 0 240 5 4
19 61 0 240 5 4
62 9 0 240 5 4
0 0 0 
0 1 0 
0 1 0 
0 1 0 
0 1 0 
0 1 0 
0 0 0 
0 0 0 
0 0 0 
0 0 0 
0 1 0 
0 1 0 
0 0 0 
0 0 0 
0 1 0 
0 0 0 
0 0 0 
0 0 1 
0 0 1 
0 0 1 
0 0 1 
0 0 0 
0 0 1 
0 0 0 
0 0 1 
0 0 0 
0 0 1 
0 0 0 
0 0 1 
0 0 1 
0 0 1 
0 0 0 
0 0 1 
0 0 1 
1 0 0 
1 0 0 
0 0 0 
1 0 0 
0 0 0 
1 0 0 
1 0 0 
1 0 0 
0 0 0 
1 0 0 
0 0 0 
0 1 0 
0 1 0 
0 0 0 
0 0 1 
0 0 0 
